c This is an instance of the exact track of PACE 2020 Challenge, see https://pacechallenge.org/2020/ 
c TYPE: infrastructure 
c ORIGIN: Open street maps 
c DESCRIPTION: Lubraniec (Poland): a road network downloaded from open street maps using osmnx Python package 
p tdp 148 198
1 143
1 3
1 31
2 145
2 41
2 56
3 8
3 133
4 139
4 6
4 148
5 66
5 73
6 126
6 82
7 126
7 10
7 148
8 22
8 144
9 78
9 11
9 13
10 98
10 73
11 72
11 123
12 76
12 63
12 14
13 77
13 70
14 72
14 68
15 47
15 98
15 16
17 73
17 20
17 18
18 82
18 126
19 21
19 78
20 22
21 77
23 24
23 74
23 25
24 119
24 26
25 28
25 93
26 39
26 27
27 119
27 134
28 57
28 74
29 113
29 114
29 30
30 87
30 90
30 114
31 138
31 80
32 43
33 56
34 147
35 36
36 42
36 41
37 38
38 41
38 145
40 76
40 42
43 99
44 147
45 46
45 65
45 64
45 120
46 52
46 51
47 48
47 116
48 49
48 50
51 62
51 94
51 53
52 103
52 53
53 104
54 103
54 135
54 55
55 132
55 75
56 59
57 125
57 133
58 88
58 89
58 60
59 108
59 107
60 111
60 67
61 67
62 94
62 64
62 109
63 70
63 68
64 65
65 105
66 116
66 67
67 71
68 123
69 96
69 105
70 123
71 72
71 78
74 127
75 104
75 130
76 77
79 135
79 144
80 143
80 142
81 82
83 130
83 100
83 129
84 115
85 116
85 86
85 111
86 112
86 116
87 111
87 89
88 90
88 108
88 91
89 90
91 115
91 124
92 132
93 109
93 110
94 129
95 114
95 118
95 119
96 99
96 102
97 98
100 125
100 110
101 115
101 108
101 107
103 104
105 106
109 128
110 129
112 137
112 113
114 121
117 124
117 121
117 118
118 121
118 122
125 131
127 139
127 134
130 131
131 132
133 136
134 137
135 138
136 141
136 138
137 146
139 146
140 141
141 142
142 143
145 147
146 148
